nbV = 14;
nbE = 13;
map = [|false,false,false,false,true,false,false,false,false,false,false,false,false
|false,false,false,false,false,false,false,false,true,true,false,false,false
|true,false,false,false,false,false,false,false,false,false,false,false,false
|false,false,false,false,false,true,false,false,false,true,false,false,false
|false,false,false,false,false,false,false,false,false,false,false,false,true
|false,false,false,false,false,false,false,false,false,false,false,true,false
|false,true,true,false,false,false,false,false,false,false,false,false,false
|false,false,false,false,false,false,true,false,false,false,false,false,false
|false,false,false,true,false,false,false,false,false,false,false,false,false
|false,false,false,false,false,false,false,false,false,false,true,true,false
|true,false,true,true,false,false,false,false,false,false,false,false,false
|false,false,false,false,true,true,true,false,false,false,false,false,false
|false,true,false,false,false,false,false,true,true,false,false,false,false
|false,false,false,false,false,false,false,true,false,false,true,false,true
|];
endnodes = [|false,false,true,false,false,false,false,false,false,false,true,false,false,false
|false,false,false,false,false,false,true,false,false,false,false,false,true,false
|false,false,false,false,false,false,true,false,false,false,true,false,false,false
|false,false,false,false,false,false,false,false,true,false,true,false,false,false
|true,false,false,false,false,false,false,false,false,false,false,true,false,false
|false,false,false,true,false,false,false,false,false,false,false,true,false,false
|false,false,false,false,false,false,false,true,false,false,false,true,false,false
|false,false,false,false,false,false,false,false,false,false,false,false,true,true
|false,true,false,false,false,false,false,false,false,false,false,false,true,false
|false,true,false,true,false,false,false,false,false,false,false,false,false,false
|false,false,false,false,false,false,false,false,false,true,false,false,false,true
|false,false,false,false,false,true,false,false,false,true,false,false,false,false
|false,false,false,false,true,false,false,false,false,false,false,false,false,true
|];
terminals = {1,2,3,4,5,6,7,8,9,10};
link_cost = [2493718,3177341,2249485,1330324,960999,1176129,1005732,1697783,1727963,2044066,855500,2555395,965100];
